p cnf 20 15
-3 -14 -6 -10 -8 -16 11 15 20 5 0
15 -16 -8 -20 3 -17 -18 -5 6 7 0
-11 -1 16 -19 -3 -7 2 -13 5 10 0
-11 -19 -10 -12 -18 -13 -7 5 -1 9 0
-3 -20 10 6 -13 -19 9 16 -5 18 0
-8 -12 10 6 9 11 17 -4 -3 19 0
18 -15 16 7 -4 -11 -12 17 3 -14 0
-15 -5 2 1 17 -12 -4 19 3 -6 0
-18 -12 -3 16 -2 -7 14 19 -13 -15 0
-3 1 -20 14 -5 12 18 -9 17 13 0
20 -19 -18 11 -1 14 -13 -5 10 7 0
5 -1 3 -7 15 4 -8 -9 -2 -20 0
-11 2 -6 -20 -18 15 16 -3 1 17 0
-17 -3 6 15 9 8 -1 5 -20 10 0
15 2 9 1 -13 -5 7 12 -3 -18 0
